100 970
582 194 679 485 312 873 468 208 364 260 582 388 291 104 520 416 970 260 582 364 776 194 468 970 312 260 156 485 416 364 582 388 468 679 52 156 312 520 52 520 468 260 468 582 388 291 468 485 312 104 468 194 97 776 388 468 416 104 104 582 485 208 388 520 104 260 364 582 468 260 208 156 679 679 97 582 97 156 679 520 208 291 776 52 291 468 156 520 468 52 873 194 520 873 873 104 873 416 776 312 
582 194 679 485 396 873 594 264 462 330 582 388 291 132 660 528 970 330 582 462 776 194 594 970 396 330 198 485 528 462 582 388 594 679 66 198 396 660 66 660 594 330 594 582 388 291 594 485 396 132 594 194 97 776 388 594 528 132 132 582 485 264 388 660 132 330 462 582 594 330 264 198 679 679 97 582 97 198 679 660 264 291 776 66 291 594 198 660 594 66 873 194 660 873 873 132 873 528 776 396 
